
(set-logic ALL) 

(declare-datatype MyList ((Nil) (Cons (head Real) (tail MyList)) )) 
(declare-fun l0 () MyList) 
(declare-fun l1 () MyList) 
(declare-fun l2 () MyList) 
(declare-fun l3 () MyList) 
(declare-fun i0 () Real) 
(declare-fun i1 () Real) 
(assert (and (= l1 Nil) (is-Cons Nil)) )
(assert (or (is-Nil Nil) (= l0 Nil)) )
(assert (= l3 l3) )
(assert (not (= l0 Nil)) )
(assert (is-Cons Nil) )
(assert (or (= l1 l1) (= l1 Nil) (is-Nil l3) (is-Cons l2)) )
(assert (and (is-Cons Nil) (= l1 l3)) )
(assert (is-Nil l1) )
(check-sat)
